max_width = 30;
n_blocks = 28;
width = [9, 4, 3, 9, 4, 3, 14, 12, 3, 2, 12, 2, 3, 9, 8, 6, 9, 4, 3, 1, 12, 3, 2, 1, 8, 6, 12, 2];
height = [24, 24, 18, 17, 17, 16, 14, 14, 14, 14, 13, 13, 12, 11, 9, 9, 8, 8, 6, 6, 5, 5, 5, 5, 3, 3, 2, 2];
